NAME: PointSet_Angle_60_9
TYPE: TSP
COMMENT: Points chosen discrete uniformly at random out of ${0, \ldots, 500}^2$.
DIMENSION: 60
EDGE_WEIGHT_TYPE: EUC_2D
NODE_COORD_SECTION
1 421 145
2 481 85
3 295 173
4 380 88
5 163 189
6 241 317
7 70 133
8 163 335
9 261 410
10 165 118
11 84 215
12 352 497
13 334 431
14 12 256
15 375 365
16 14 41
17 9 241
18 373 50
19 414 252
20 385 324
21 188 126
22 140 258
23 5 49
24 339 266
25 206 4
26 131 290
27 466 483
28 286 299
29 413 45
30 55 33
31 410 316
32 74 166
33 57 193
34 216 217
35 446 101
36 40 133
37 474 427
38 137 479
39 223 476
40 244 429
41 226 121
42 218 191
43 104 251
44 237 263
45 42 292
46 297 198
47 107 371
48 364 411
49 311 327
50 128 256
51 428 415
52 135 401
53 342 272
54 125 64
55 494 115
56 239 467
57 237 203
58 157 87
59 200 394
60 350 242
EOF
